NAME: instance_3478
TYPE: TSP
DIMENSION: 20
EDGE_WEIGHT_TYPE: EUC_2D
NODE_COORD_SECTION
0 35.38 68.00
1 9.39 45.52
2 21.34 0.95
3 47.97 6.86
4 96.89 28.32
5 67.37 81.62
6 21.82 59.15
7 40.89 36.44
8 25.15 84.48
9 36.06 19.61
10 6.44 45.21
11 45.49 12.35
12 52.83 78.96
13 22.06 66.73
14 96.72 62.01
15 17.99 55.75
16 88.38 90.77
17 92.70 37.08
18 49.55 44.30
19 44.48 12.67
EOF
